1132.0 13859.0 
1131.0 13868.0 
1131.0 13868.0 
1127.0 13896.0 
1184.0 12975.0 
1151.0 13375.0 
1151.0 13375.0 
1127.0 13896.0 
1179.0 13063.0 
1163.0 13144.0 
1179.0 13063.0 
1123.0 14171.0 
1151.0 13375.0 
1122.0 14467.0 
1125.0 14131.0 
1138.0 13424.0 
